p wcnf 152 180 181 
1 -62 118 0 
1 -74 -148 0 
1 -115 140 0 
1 38 39 0 
1 -30 15 0 
1 74 -66 0 
1 -76 46 0 
1 -101 71 0 
1 59 -57 0 
1 -138 -56 0 
1 -140 -88 0 
1 125 95 0 
1 64 53 0 
1 8 104 0 
1 90 -52 0 
1 140 -47 0 
1 69 -45 0 
1 -132 -81 0 
1 -10 93 0 
1 -152 -146 0 
1 -111 -122 0 
1 40 -110 0 
1 -81 1 0 
1 115 130 0 
1 -25 133 0 
1 -23 -96 0 
1 107 -74 0 
1 95 144 0 
1 -2 67 0 
1 21 66 0 
1 -91 34 0 
1 51 22 0 
1 89 20 0 
1 53 107 0 
1 -127 6 0 
1 52 -77 0 
1 -37 62 0 
1 41 -121 0 
1 -139 107 0 
1 112 -81 0 
1 23 100 0 
1 -61 124 0 
1 20 13 0 
1 40 -117 0 
1 141 33 0 
1 109 120 0 
1 17 91 0 
1 -24 146 0 
1 -96 -75 0 
1 60 65 0 
1 125 -138 0 
1 -33 -36 0 
1 -139 83 0 
1 -28 -134 0 
1 63 -55 0 
1 -70 38 0 
1 118 -60 0 
1 -115 -32 0 
1 106 -48 0 
1 98 38 0 
1 102 49 0 
1 -92 -20 0 
1 -143 -11 0 
1 27 -2 0 
1 138 4 0 
1 121 90 0 
1 35 -57 0 
1 -104 -55 0 
1 33 -143 0 
1 35 83 0 
1 -79 -3 0 
1 -76 -46 0 
1 102 -39 0 
1 147 -123 0 
1 -131 107 0 
1 -151 -146 0 
1 -149 -121 0 
1 -23 -26 0 
1 -133 -17 0 
1 -25 79 0 
1 49 -140 0 
1 -8 -43 0 
1 57 -135 0 
1 -25 -145 0 
1 -128 -84 0 
1 135 44 0 
1 -67 -24 0 
1 120 146 0 
1 18 125 0 
1 24 37 0 
1 118 120 0 
1 -131 119 0 
1 47 -150 0 
1 -21 148 0 
1 74 60 0 
1 -72 99 0 
1 -103 -23 0 
1 68 112 0 
1 -21 -24 0 
1 -26 137 0 
1 41 -19 0 
1 67 2 0 
1 -63 38 0 
1 31 -51 0 
1 79 16 0 
1 -145 -62 0 
1 -138 77 0 
1 93 -100 0 
1 95 -71 0 
1 -124 -99 0 
1 -11 -112 0 
1 -69 49 0 
1 145 -127 0 
1 -85 94 0 
1 -72 -22 0 
1 107 116 0 
1 110 -145 0 
1 98 -116 0 
1 21 -131 0 
1 -89 -58 0 
1 20 -133 0 
1 -71 31 0 
1 131 -44 0 
1 21 -80 0 
1 55 8 0 
1 33 -72 0 
1 -115 -23 0 
1 -42 -64 0 
1 118 -86 0 
1 3 45 0 
1 67 141 0 
1 18 -62 0 
1 -150 -30 0 
1 -25 -14 0 
1 30 135 0 
1 -46 16 0 
1 -128 -45 0 
1 -52 17 0 
1 121 14 0 
1 31 -142 0 
1 -87 -45 0 
1 67 68 0 
1 85 -45 0 
1 -13 14 0 
1 45 99 0 
1 46 -150 0 
1 145 27 0 
1 -146 127 0 
1 92 -20 0 
1 -90 147 0 
1 -111 -90 0 
1 -115 15 0 
1 -60 140 0 
1 -149 120 0 
1 -130 8 0 
1 58 107 0 
1 -80 -44 0 
1 99 -66 0 
1 -84 100 0 
1 -134 -92 0 
1 114 135 0 
1 137 134 0 
1 -57 -67 0 
1 113 15 0 
1 -84 -97 0 
1 62 -104 0 
1 -76 90 0 
1 39 -63 0 
1 -33 -58 0 
1 145 122 0 
1 27 -35 0 
1 -19 -34 0 
1 -103 58 0 
1 25 16 0 
1 132 115 0 
1 25 88 0 
1 108 39 0 
1 138 69 0 
1 86 -103 0 
1 137 86 0 
